tsp_instances/TSP50/instance16.tsp
NODE_COORD_SECTION
0 14 41
1 110 199
2 59 73
3 42 144
4 95 88
5 19 193
6 77 30
7 42 168
8 64 120
9 27 149
10 198 125
11 27 39
12 90 182
13 153 102
14 145 167
15 76 39
16 52 182
17 164 141
18 54 135
19 84 29
20 176 164
21 35 164
22 111 37
23 182 60
24 22 109
25 157 122
26 174 187
27 27 92
28 13 162
29 28 196
30 200 193
31 151 200
32 55 125
33 106 163
34 114 49
35 64 71
36 52 6
37 191 13
38 137 174
39 146 123
40 139 132
41 19 175
42 167 71
43 154 59
44 40 133
45 22 32
46 113 109
47 109 76
48 114 75
49 26 133
