tsp_instances/TSP50/instance16.opt.tour
TOUR_SECTION
1
12
36
3
28
25
50
45
33
9
19
4
10
29
42
6
30
22
8
17
13
2
34
39
15
32
27
31
21
18
11
24
38
44
43
14
26
40
41
47
5
48
49
35
23
20
16
7
37
46
-1